name	xcoord	ycoord	start	end	service
0	0	0	0	2000	0
1	31	64	1764	1925	4
2	-97	-94	372	505	21
3	-26	-50	851	993	7
4	71	-8	1404	1461	5
5	5	-10	859	1079	6
6	-44	8	864	944	0
7	-35	82	1210	1310	0
8	-48	-72	503	619	1
9	-2	-20	1942	2036	16
10	50	26	1044	1176	3
11	94	99	1310	1402	22
12	38	44	1152	1350	2
13	77	-48	749	796	19
14	-93	-65	978	1109	5
15	32	-62	1903	1943	10
16	67	-59	237	394	3
17	-21	44	830	941	17
18	-71	16	73	238	23
19	-48	68	1647	1775	2
20	36	15	948	1023	9
21	54	-24	1351	1447	23
22	99	70	1188	1267	22
23	-16	-21	1458	1608	2
24	64	36	371	422	14
25	-23	-52	1723	1907	14
26	-36	-22	1035	1185	14
27	-74	44	1794	1940	5
28	23	-95	1805	1921	1
29	-96	81	1130	1225	11
30	-38	29	938	1161	14
